(declare-const in0 Int)
(declare-const in2 Int)
(declare-const in1 Int)
(declare-const in4 Int)
(declare-const in3 Int)
(declare-const in6 Int)
(declare-const in5 Int)
(declare-const in8 Int)
(declare-const in7 Int)
(declare-const in11 Int)
(declare-const in10 Int)
(declare-const in9 Int)
(declare-const in13 Int)
(declare-const in12 Int)
(declare-const in14 Int)

(assert (and (and (and (and (and (and (and (and (and (and (and (and  ( ==  ( -  in2 in1) ( -  in1 in0))  ( ==  ( -  in3 in2) ( -  in2 in1)))  ( ==  ( -  in4 in3) ( -  in3 in2)))  ( ==  ( -  in5 in4) ( -  in4 in3)))  ( ==  ( -  in6 in5) ( -  in5 in4)))  ( ==  ( -  in7 in6) ( -  in6 in5)))  ( ==  ( -  in8 in7) ( -  in7 in6)))  ( ==  ( -  in9 in8) ( -  in8 in7)))  ( ==  ( -  in10 in9) ( -  in9 in8)))  ( ==  ( -  in11 in10) ( -  in10 in9)))  ( ==  ( -  in12 in11) ( -  in11 in10)))  ( ==  ( -  in13 in12) ( -  in12 in11)))  ( ==  ( -  in14 in13) ( -  in13 in12))))

(check-sat)
(get-model)